p cnf 225 1
225 0
w 1 0.05949
w 2 1 0
w 2 -1 1
w 3 2 1
w 3 -2 0
w 4 3 0
w 4 -3 1
w 5 4 0
w 5 -4 1
w 6 5 0.895522
w 6 -5 0.03591
w 7 6 0.18755
w 7 -6 0.220108
w 8 7 0
w 8 -7 1
w 9 8 0
w 9 -8 1
w 10 9 0.723548
w 10 -9 0.640377
w 11 10 0.351897
w 11 -10 0.437539
w 12 11 0.084458
w 12 -11 0.990154
w 13 12 0.0292748
w 13 -12 0.331692
w 14 13 0.317794
w 14 -13 0.775507
w 15 14 1
w 15 -14 0
w 16 1 0.237003
w 16 -1 0.390187
w 17 16 2 0.228031
w 17 16 -2 0.285709
w 17 -16 2 0.793118
w 17 -16 -2 0.982734
w 18 17 3 1
w 18 17 -3 0
w 18 -17 3 0
w 18 -17 -3 0
w 19 18 4 0.879375
w 19 18 -4 0.0569131
w 19 -18 4 0.703051
w 19 -18 -4 0.231272
w 20 19 5 0
w 20 19 -5 0
w 20 -19 5 1
w 20 -19 -5 1
w 21 20 6 0
w 21 20 -6 0
w 21 -20 6 1
w 21 -20 -6 1
w 22 21 7 0
w 22 21 -7 1
w 22 -21 7 0
w 22 -21 -7 1
w 23 22 8 0
w 23 22 -8 1
w 23 -22 8 0
w 23 -22 -8 1
w 24 23 9 0.00449333
w 24 23 -9 0.205564
w 24 -23 9 0.717707
w 24 -23 -9 0.16032
w 25 24 10 0
w 25 24 -10 0
w 25 -24 10 1
w 25 -24 -10 0
w 26 25 11 0
w 26 25 -11 0
w 26 -25 11 0
w 26 -25 -11 1
w 27 26 12 0.474368
w 27 26 -12 0.652259
w 27 -26 12 0.594501
w 27 -26 -12 0.0661729
w 28 27 13 0
w 28 27 -13 1
w 28 -27 13 0
w 28 -27 -13 1
w 29 28 14 0
w 29 28 -14 0
w 29 -28 14 1
w 29 -28 -14 0
w 30 29 15 0.701027
w 30 29 -15 0.327365
w 30 -29 15 0.482349
w 30 -29 -15 0.861347
w 31 16 0.992146
w 31 -16 0.901043
w 32 31 17 1
w 32 31 -17 1
w 32 -31 17 1
w 32 -31 -17 0
w 33 32 18 1
w 33 32 -18 1
w 33 -32 18 0
w 33 -32 -18 1
w 34 33 19 0
w 34 33 -19 1
w 34 -33 19 1
w 34 -33 -19 1
w 35 34 20 0
w 35 34 -20 1
w 35 -34 20 1
w 35 -34 -20 0
w 36 35 21 0.644256
w 36 35 -21 0.721679
w 36 -35 21 0.610497
w 36 -35 -21 0.971621
w 37 36 22 1
w 37 36 -22 0
w 37 -36 22 0
w 37 -36 -22 0
w 38 37 23 0
w 38 37 -23 1
w 38 -37 23 0
w 38 -37 -23 1
w 39 38 24 0
w 39 38 -24 0
w 39 -38 24 0
w 39 -38 -24 1
w 40 39 25 0
w 40 39 -25 0
w 40 -39 25 0
w 40 -39 -25 1
w 41 40 26 0.977337
w 41 40 -26 0.467065
w 41 -40 26 0.492904
w 41 -40 -26 0.934373
w 42 41 27 0
w 42 41 -27 0
w 42 -41 27 1
w 42 -41 -27 1
w 43 42 28 0.458875
w 43 42 -28 0.0298671
w 43 -42 28 0.0562535
w 43 -42 -28 0.831762
w 44 43 29 0
w 44 43 -29 1
w 44 -43 29 1
w 44 -43 -29 1
w 45 44 30 1
w 45 44 -30 0
w 45 -44 30 1
w 45 -44 -30 1
w 46 31 0.234823
w 46 -31 0.699287
w 47 46 32 0.488952
w 47 46 -32 0.669736
w 47 -46 32 0.8276
w 47 -46 -32 0.956017
w 48 47 33 1
w 48 47 -33 0
w 48 -47 33 0
w 48 -47 -33 1
w 49 48 34 0
w 49 48 -34 0
w 49 -48 34 0
w 49 -48 -34 1
w 50 49 35 0
w 50 49 -35 0
w 50 -49 35 1
w 50 -49 -35 1
w 51 50 36 0.770268
w 51 50 -36 0.667141
w 51 -50 36 0.691281
w 51 -50 -36 0.764593
w 52 51 37 1
w 52 51 -37 1
w 52 -51 37 1
w 52 -51 -37 0
w 53 52 38 0
w 53 52 -38 0
w 53 -52 38 1
w 53 -52 -38 1
w 54 53 39 0.45345
w 54 53 -39 0.734455
w 54 -53 39 0.19199
w 54 -53 -39 0.75325
w 55 54 40 1
w 55 54 -40 0
w 55 -54 40 0
w 55 -54 -40 1
w 56 55 41 0
w 56 55 -41 1
w 56 -55 41 1
w 56 -55 -41 0
w 57 56 42 0.566981
w 57 56 -42 0.326991
w 57 -56 42 0.55427
w 57 -56 -42 0.258262
w 58 57 43 1
w 58 57 -43 1
w 58 -57 43 1
w 58 -57 -43 0
w 59 58 44 0.634445
w 59 58 -44 0.335188
w 59 -58 44 0.755798
w 59 -58 -44 0.925255
w 60 59 45 1
w 60 59 -45 1
w 60 -59 45 0
w 60 -59 -45 1
w 61 46 0
w 61 -46 1
w 62 61 47 1
w 62 61 -47 0
w 62 -61 47 1
w 62 -61 -47 0
w 63 62 48 1
w 63 62 -48 0
w 63 -62 48 1
w 63 -62 -48 1
w 64 63 49 1
w 64 63 -49 1
w 64 -63 49 1
w 64 -63 -49 0
w 65 64 50 0.775379
w 65 64 -50 0.378802
w 65 -64 50 0.0364758
w 65 -64 -50 0.627755
w 66 65 51 1
w 66 65 -51 0
w 66 -65 51 1
w 66 -65 -51 0
w 67 66 52 0.317207
w 67 66 -52 0.721457
w 67 -66 52 0.806016
w 67 -66 -52 0.449162
w 68 67 53 0.124816
w 68 67 -53 0.742949
w 68 -67 53 0.541248
w 68 -67 -53 0.733647
w 69 68 54 0
w 69 68 -54 1
w 69 -68 54 0
w 69 -68 -54 1
w 70 69 55 1
w 70 69 -55 0
w 70 -69 55 1
w 70 -69 -55 0
w 71 70 56 1
w 71 70 -56 0
w 71 -70 56 0
w 71 -70 -56 0
w 72 71 57 0.909556
w 72 71 -57 0.843733
w 72 -71 57 0.352615
w 72 -71 -57 0.848057
w 73 72 58 0
w 73 72 -58 0
w 73 -72 58 0
w 73 -72 -58 1
w 74 73 59 1
w 74 73 -59 1
w 74 -73 59 0
w 74 -73 -59 1
w 75 74 60 0
w 75 74 -60 0
w 75 -74 60 0
w 75 -74 -60 1
w 76 61 0
w 76 -61 1
w 77 76 62 0.181027
w 77 76 -62 0.922572
w 77 -76 62 0.279328
w 77 -76 -62 0.0773352
w 78 77 63 0
w 78 77 -63 1
w 78 -77 63 0
w 78 -77 -63 1
w 79 78 64 0.76144
w 79 78 -64 0.952409
w 79 -78 64 0.000212395
w 79 -78 -64 0.00596285
w 80 79 65 1
w 80 79 -65 0
w 80 -79 65 0
w 80 -79 -65 1
w 81 80 66 0.407947
w 81 80 -66 0.966406
w 81 -80 66 0.501587
w 81 -80 -66 0.66656
w 82 81 67 0
w 82 81 -67 0
w 82 -81 67 1
w 82 -81 -67 1
w 83 82 68 0
w 83 82 -68 0
w 83 -82 68 1
w 83 -82 -68 0
w 84 83 69 0.368305
w 84 83 -69 0.947879
w 84 -83 69 0.921802
w 84 -83 -69 0.60668
w 85 84 70 0
w 85 84 -70 1
w 85 -84 70 1
w 85 -84 -70 0
w 86 85 71 0
w 86 85 -71 0
w 86 -85 71 0
w 86 -85 -71 1
w 87 86 72 0
w 87 86 -72 0
w 87 -86 72 0
w 87 -86 -72 1
w 88 87 73 1
w 88 87 -73 1
w 88 -87 73 0
w 88 -87 -73 0
w 89 88 74 0
w 89 88 -74 1
w 89 -88 74 1
w 89 -88 -74 1
w 90 89 75 1
w 90 89 -75 0
w 90 -89 75 0
w 90 -89 -75 0
w 91 76 0
w 91 -76 1
w 92 91 77 0
w 92 91 -77 1
w 92 -91 77 1
w 92 -91 -77 1
w 93 92 78 1
w 93 92 -78 1
w 93 -92 78 0
w 93 -92 -78 1
w 94 93 79 0
w 94 93 -79 0
w 94 -93 79 1
w 94 -93 -79 1
w 95 94 80 1
w 95 94 -80 0
w 95 -94 80 0
w 95 -94 -80 1
w 96 95 81 1
w 96 95 -81 1
w 96 -95 81 0
w 96 -95 -81 0
w 97 96 82 1
w 97 96 -82 0
w 97 -96 82 1
w 97 -96 -82 1
w 98 97 83 1
w 98 97 -83 1
w 98 -97 83 0
w 98 -97 -83 0
w 99 98 84 1
w 99 98 -84 1
w 99 -98 84 0
w 99 -98 -84 1
w 100 99 85 1
w 100 99 -85 1
w 100 -99 85 0
w 100 -99 -85 1
w 101 100 86 0
w 101 100 -86 0
w 101 -100 86 0
w 101 -100 -86 1
w 102 101 87 1
w 102 101 -87 0
w 102 -101 87 1
w 102 -101 -87 0
w 103 102 88 0
w 103 102 -88 1
w 103 -102 88 1
w 103 -102 -88 0
w 104 103 89 0
w 104 103 -89 1
w 104 -103 89 1
w 104 -103 -89 0
w 105 104 90 0.0808553
w 105 104 -90 0.275262
w 105 -104 90 0.891555
w 105 -104 -90 0.374237
w 106 91 0.34345
w 106 -91 0.712962
w 107 106 92 0
w 107 106 -92 1
w 107 -106 92 0
w 107 -106 -92 1
w 108 107 93 0
w 108 107 -93 0
w 108 -107 93 1
w 108 -107 -93 0
w 109 108 94 0
w 109 108 -94 0
w 109 -108 94 1
w 109 -108 -94 1
w 110 109 95 1
w 110 109 -95 1
w 110 -109 95 0
w 110 -109 -95 1
w 111 110 96 0
w 111 110 -96 1
w 111 -110 96 1
w 111 -110 -96 1
w 112 111 97 0.785961
w 112 111 -97 0.0539491
w 112 -111 97 0.217605
w 112 -111 -97 0.498923
w 113 112 98 1
w 113 112 -98 1
w 113 -112 98 1
w 113 -112 -98 0
w 114 113 99 0
w 114 113 -99 1
w 114 -113 99 0
w 114 -113 -99 0
w 115 114 100 0
w 115 114 -100 0
w 115 -114 100 1
w 115 -114 -100 1
w 116 115 101 0
w 116 115 -101 0
w 116 -115 101 1
w 116 -115 -101 0
w 117 116 102 1
w 117 116 -102 1
w 117 -116 102 1
w 117 -116 -102 0
w 118 117 103 1
w 118 117 -103 0
w 118 -117 103 1
w 118 -117 -103 1
w 119 118 104 1
w 119 118 -104 0
w 119 -118 104 1
w 119 -118 -104 1
w 120 119 105 1
w 120 119 -105 0
w 120 -119 105 0
w 120 -119 -105 1
w 121 106 1
w 121 -106 0
w 122 121 107 0.976913
w 122 121 -107 0.871519
w 122 -121 107 0.913428
w 122 -121 -107 0.20057
w 123 122 108 1
w 123 122 -108 0
w 123 -122 108 1
w 123 -122 -108 0
w 124 123 109 0.916329
w 124 123 -109 0.875277
w 124 -123 109 0.985839
w 124 -123 -109 0.530338
w 125 124 110 0
w 125 124 -110 1
w 125 -124 110 1
w 125 -124 -110 0
w 126 125 111 1
w 126 125 -111 1
w 126 -125 111 1
w 126 -125 -111 0
w 127 126 112 1
w 127 126 -112 0
w 127 -126 112 0
w 127 -126 -112 0
w 128 127 113 0
w 128 127 -113 1
w 128 -127 113 0
w 128 -127 -113 0
w 129 128 114 0.133816
w 129 128 -114 0.953861
w 129 -128 114 0.0809061
w 129 -128 -114 0.303704
w 130 129 115 0.997235
w 130 129 -115 0.178981
w 130 -129 115 0.885371
w 130 -129 -115 0.527573
w 131 130 116 1
w 131 130 -116 0
w 131 -130 116 1
w 131 -130 -116 1
w 132 131 117 0
w 132 131 -117 1
w 132 -131 117 1
w 132 -131 -117 1
w 133 132 118 1
w 133 132 -118 0
w 133 -132 118 1
w 133 -132 -118 1
w 134 133 119 1
w 134 133 -119 1
w 134 -133 119 1
w 134 -133 -119 0
w 135 134 120 0
w 135 134 -120 1
w 135 -134 120 0
w 135 -134 -120 0
w 136 121 0
w 136 -121 1
w 137 136 122 1
w 137 136 -122 1
w 137 -136 122 0
w 137 -136 -122 0
w 138 137 123 0.0339261
w 138 137 -123 0.012574
w 138 -137 123 0.180856
w 138 -137 -123 0.957251
w 139 138 124 0
w 139 138 -124 1
w 139 -138 124 1
w 139 -138 -124 1
w 140 139 125 0.984029
w 140 139 -125 0.246125
w 140 -139 125 0.938501
w 140 -139 -125 0.695747
w 141 140 126 1
w 141 140 -126 1
w 141 -140 126 1
w 141 -140 -126 0
w 142 141 127 0.151771
w 142 141 -127 0.175013
w 142 -141 127 0.552853
w 142 -141 -127 0.575511
w 143 142 128 0.1277
w 143 142 -128 0.526824
w 143 -142 128 0.892243
w 143 -142 -128 0.667876
w 144 143 129 1
w 144 143 -129 1
w 144 -143 129 0
w 144 -143 -129 0
w 145 144 130 1
w 145 144 -130 1
w 145 -144 130 1
w 145 -144 -130 0
w 146 145 131 1
w 146 145 -131 1
w 146 -145 131 0
w 146 -145 -131 1
w 147 146 132 1
w 147 146 -132 0
w 147 -146 132 1
w 147 -146 -132 0
w 148 147 133 1
w 148 147 -133 0
w 148 -147 133 1
w 148 -147 -133 1
w 149 148 134 1
w 149 148 -134 0
w 149 -148 134 0
w 149 -148 -134 1
w 150 149 135 1
w 150 149 -135 1
w 150 -149 135 1
w 150 -149 -135 0
w 151 136 0.530222
w 151 -136 0.488121
w 152 151 137 1
w 152 151 -137 1
w 152 -151 137 1
w 152 -151 -137 0
w 153 152 138 1
w 153 152 -138 0
w 153 -152 138 1
w 153 -152 -138 1
w 154 153 139 1
w 154 153 -139 1
w 154 -153 139 0
w 154 -153 -139 1
w 155 154 140 1
w 155 154 -140 0
w 155 -154 140 1
w 155 -154 -140 1
w 156 155 141 1
w 156 155 -141 0
w 156 -155 141 0
w 156 -155 -141 1
w 157 156 142 1
w 157 156 -142 1
w 157 -156 142 1
w 157 -156 -142 0
w 158 157 143 1
w 158 157 -143 1
w 158 -157 143 1
w 158 -157 -143 0
w 159 158 144 0
w 159 158 -144 1
w 159 -158 144 1
w 159 -158 -144 0
w 160 159 145 1
w 160 159 -145 1
w 160 -159 145 0
w 160 -159 -145 0
w 161 160 146 1
w 161 160 -146 1
w 161 -160 146 0
w 161 -160 -146 1
w 162 161 147 0
w 162 161 -147 1
w 162 -161 147 1
w 162 -161 -147 1
w 163 162 148 1
w 163 162 -148 0
w 163 -162 148 1
w 163 -162 -148 1
w 164 163 149 0.906765
w 164 163 -149 0.436074
w 164 -163 149 0.957221
w 164 -163 -149 0.92261
w 165 164 150 0
w 165 164 -150 1
w 165 -164 150 0
w 165 -164 -150 0
w 166 151 0.888152
w 166 -151 0.407502
w 167 166 152 1
w 167 166 -152 1
w 167 -166 152 0
w 167 -166 -152 1
w 168 167 153 0
w 168 167 -153 1
w 168 -167 153 1
w 168 -167 -153 1
w 169 168 154 1
w 169 168 -154 0
w 169 -168 154 0
w 169 -168 -154 1
w 170 169 155 1
w 170 169 -155 0
w 170 -169 155 1
w 170 -169 -155 1
w 171 170 156 1
w 171 170 -156 1
w 171 -170 156 1
w 171 -170 -156 0
w 172 171 157 1
w 172 171 -157 0
w 172 -171 157 0
w 172 -171 -157 1
w 173 172 158 0
w 173 172 -158 0
w 173 -172 158 0
w 173 -172 -158 1
w 174 173 159 1
w 174 173 -159 0
w 174 -173 159 0
w 174 -173 -159 1
w 175 174 160 0.606824
w 175 174 -160 0.460315
w 175 -174 160 0.222525
w 175 -174 -160 0.448164
w 176 175 161 0
w 176 175 -161 0
w 176 -175 161 0
w 176 -175 -161 1
w 177 176 162 0
w 177 176 -162 0
w 177 -176 162 0
w 177 -176 -162 1
w 178 177 163 0
w 178 177 -163 1
w 178 -177 163 0
w 178 -177 -163 0
w 179 178 164 0
w 179 178 -164 0
w 179 -178 164 0
w 179 -178 -164 1
w 180 179 165 0
w 180 179 -165 1
w 180 -179 165 0
w 180 -179 -165 0
w 181 166 0.15607
w 181 -166 0.642971
w 182 181 167 0
w 182 181 -167 1
w 182 -181 167 0
w 182 -181 -167 0
w 183 182 168 0.416001
w 183 182 -168 0.873287
w 183 -182 168 0.561452
w 183 -182 -168 0.258212
w 184 183 169 0.188809
w 184 183 -169 0.382505
w 184 -183 169 0.0637516
w 184 -183 -169 0.338556
w 185 184 170 0
w 185 184 -170 0
w 185 -184 170 1
w 185 -184 -170 1
w 186 185 171 0.0533855
w 186 185 -171 0.868418
w 186 -185 171 0.328774
w 186 -185 -171 0.423879
w 187 186 172 0.878021
w 187 186 -172 0.606535
w 187 -186 172 0.896793
w 187 -186 -172 0.0340909
w 188 187 173 1
w 188 187 -173 0
w 188 -187 173 1
w 188 -187 -173 1
w 189 188 174 0
w 189 188 -174 1
w 189 -188 174 1
w 189 -188 -174 1
w 190 189 175 0
w 190 189 -175 0
w 190 -189 175 1
w 190 -189 -175 0
w 191 190 176 1
w 191 190 -176 0
w 191 -190 176 1
w 191 -190 -176 0
w 192 191 177 1
w 192 191 -177 1
w 192 -191 177 1
w 192 -191 -177 0
w 193 192 178 0
w 193 192 -178 1
w 193 -192 178 1
w 193 -192 -178 0
w 194 193 179 0.619496
w 194 193 -179 0.418563
w 194 -193 179 0.0479228
w 194 -193 -179 0.394609
w 195 194 180 0
w 195 194 -180 0
w 195 -194 180 0
w 195 -194 -180 1
w 196 181 1
w 196 -181 0
w 197 196 182 0.86688
w 197 196 -182 0.688164
w 197 -196 182 0.131699
w 197 -196 -182 0.325347
w 198 197 183 1
w 198 197 -183 1
w 198 -197 183 0
w 198 -197 -183 1
w 199 198 184 1
w 199 198 -184 0
w 199 -198 184 1
w 199 -198 -184 0
w 200 199 185 0.93181
w 200 199 -185 0.738709
w 200 -199 185 0.743387
w 200 -199 -185 0.763118
w 201 200 186 0
w 201 200 -186 1
w 201 -200 186 0
w 201 -200 -186 1
w 202 201 187 0
w 202 201 -187 1
w 202 -201 187 0
w 202 -201 -187 0
w 203 202 188 0.852842
w 203 202 -188 0.240466
w 203 -202 188 0.530422
w 203 -202 -188 0.984541
w 204 203 189 0
w 204 203 -189 0
w 204 -203 189 0
w 204 -203 -189 1
w 205 204 190 0.933196
w 205 204 -190 0.359943
w 205 -204 190 0.11391
w 205 -204 -190 0.129842
w 206 205 191 1
w 206 205 -191 1
w 206 -205 191 1
w 206 -205 -191 0
w 207 206 192 0
w 207 206 -192 1
w 207 -206 192 1
w 207 -206 -192 1
w 208 207 193 1
w 208 207 -193 1
w 208 -207 193 1
w 208 -207 -193 0
w 209 208 194 1
w 209 208 -194 1
w 209 -208 194 0
w 209 -208 -194 0
w 210 209 195 0
w 210 209 -195 0
w 210 -209 195 1
w 210 -209 -195 0
w 211 196 1
w 211 -196 0
w 212 211 197 0.764947
w 212 211 -197 0.0476431
w 212 -211 197 0.0878499
w 212 -211 -197 0.810666
w 213 212 198 0.15433
w 213 212 -198 0.619504
w 213 -212 198 0.142951
w 213 -212 -198 0.38276
w 214 213 199 1
w 214 213 -199 1
w 214 -213 199 0
w 214 -213 -199 1
w 215 214 200 0.519461
w 215 214 -200 0.132319
w 215 -214 200 0.423045
w 215 -214 -200 0.0027283
w 216 215 201 0
w 216 215 -201 1
w 216 -215 201 0
w 216 -215 -201 0
w 217 216 202 0
w 217 216 -202 0
w 217 -216 202 1
w 217 -216 -202 0
w 218 217 203 0.901982
w 218 217 -203 0.865567
w 218 -217 203 0.0416299
w 218 -217 -203 0.989832
w 219 218 204 1
w 219 218 -204 0
w 219 -218 204 0
w 219 -218 -204 1
w 220 219 205 0
w 220 219 -205 1
w 220 -219 205 1
w 220 -219 -205 1
w 221 220 206 0
w 221 220 -206 1
w 221 -220 206 0
w 221 -220 -206 1
w 222 221 207 0.521123
w 222 221 -207 0.416881
w 222 -221 207 0.423168
w 222 -221 -207 0.612704
w 223 222 208 1
w 223 222 -208 0
w 223 -222 208 1
w 223 -222 -208 1
w 224 223 209 1
w 224 223 -209 0
w 224 -223 209 0
w 224 -223 -209 0
w 225 224 210 0
w 225 224 -210 0
w 225 -224 210 1
w 225 -224 -210 0